decision_x1=[0,2];
decision_x2=[0,2];
decision_x3=[0,2];
decision_x4=[0,2];
decision_x5=[0,2];
decision_x6=[0,2];
decision_x7=[0,2];
decision_x8=[0,2];
decision_x9=[0,2];
decision_x10=[0,2];
random_y1=[0,2];
random_y2=[0,2];
random_y3=[0,2];
random_y4=[0,2];
constraint_x2_x1=[
0,0,1.9|
0,1,7.5|
0,2,7.2|
1,0,8|
1,1,2.1|
1,2,6.5|
2,0,0.99|
2,1,6.4|
2,2,2.1|
];
constraint_x4_x1=[
0,0,3.4|
0,1,4.5|
0,2,4.5|
1,0,4.1|
1,1,4.4|
1,2,9.4|
2,0,4.6|
2,1,1.8|
2,2,7.4|
];
constraint_x4_x2=[
0,0,2.1|
0,1,4.3|
0,2,4.9|
1,0,3.9|
1,1,0.13|
1,2,2.9|
2,0,3.4|
2,1,4.7|
2,2,2.2|
];
constraint_x4_x3=[
0,0,1.3|
0,1,2.7|
0,2,2.3|
1,0,2.6|
1,1,9.3|
1,2,6.8|
2,0,8.7|
2,1,8.4|
2,2,1.1|
];
constraint_x6_x2=[
0,0,7.7|
0,1,6.5|
0,2,2.5|
1,0,7.9|
1,1,8.9|
1,2,5.1|
2,0,3.5|
2,1,1.9|
2,2,2.2|
];
constraint_x6_x5=[
0,0,1.6|
0,1,8.6|
0,2,9.7|
1,0,3|
1,1,8.8|
1,2,5.5|
2,0,7.5|
2,1,7.9|
2,2,6.3|
];
constraint_x7_x1=[
0,0,9.9|
0,1,5.5|
0,2,2.3|
1,0,0.63|
1,1,7.1|
1,2,0.59|
2,0,4.1|
2,1,8.5|
2,2,4.8|
];
constraint_x7_x5=[
0,0,2.4|
0,1,9|
0,2,0.81|
1,0,2.4|
1,1,9.9|
1,2,6|
2,0,9.2|
2,1,7.6|
2,2,7.5|
];
constraint_x7_x6=[
0,0,4.2|
0,1,9.3|
0,2,5|
1,0,0.024|
1,1,6.7|
1,2,3.8|
2,0,8.5|
2,1,5.2|
2,2,8.9|
];
constraint_x8_x1=[
0,0,5.2|
0,1,1.6|
0,2,2.3|
1,0,1.6|
1,1,4.5|
1,2,10|
2,0,7.8|
2,1,4.4|
2,2,5|
];
constraint_x8_x3=[
0,0,6|
0,1,7.7|
0,2,1.7|
1,0,1.9|
1,1,8.9|
1,2,3.2|
2,0,3.6|
2,1,7.9|
2,2,2.5|
];
constraint_x8_x4=[
0,0,9.2|
0,1,4.7|
0,2,2.9|
1,0,7|
1,1,3.5|
1,2,2|
2,0,2|
2,1,5.7|
2,2,2.7|
];
constraint_x8_x6=[
0,0,2.2|
0,1,6.7|
0,2,8.8|
1,0,5.8|
1,1,2|
1,2,6|
2,0,5.7|
2,1,1.5|
2,2,4.4|
];
constraint_x9_x1=[
0,0,8.3|
0,1,6.8|
0,2,6.8|
1,0,2.9|
1,1,3.7|
1,2,7.6|
2,0,1.3|
2,1,1.8|
2,2,6.9|
];
constraint_x9_x2=[
0,0,9.1|
0,1,0.8|
0,2,8.1|
1,0,4.8|
1,1,9.4|
1,2,4.7|
2,0,9.9|
2,1,8.2|
2,2,5.9|
];
constraint_x9_x5=[
0,0,3.9|
0,1,8.4|
0,2,3.2|
1,0,1.7|
1,1,2.6|
1,2,8.1|
2,0,3.9|
2,1,1|
2,2,1.4|
];
constraint_x9_x6=[
0,0,2.6|
0,1,4|
0,2,8.1|
1,0,8.1|
1,1,5.7|
1,2,5.6|
2,0,4.7|
2,1,2.8|
2,2,1.3|
];
constraint_x9_x8=[
0,0,4.7|
0,1,0.31|
0,2,0.86|
1,0,8.7|
1,1,2.8|
1,2,3.1|
2,0,5.2|
2,1,4.7|
2,2,5|
];
constraint_x10_x1=[
0,0,8.5|
0,1,6|
0,2,5.3|
1,0,8.4|
1,1,3.3|
1,2,8.9|
2,0,4.8|
2,1,4.9|
2,2,1.8|
];
constraint_x10_x3=[
0,0,7.2|
0,1,0.51|
0,2,4.2|
1,0,5.4|
1,1,2.3|
1,2,8.4|
2,0,9.9|
2,1,2.1|
2,2,9.6|
];
constraint_x10_x4=[
0,0,2.7|
0,1,1.2|
0,2,4.2|
1,0,8.8|
1,1,0.013|
1,2,6.4|
2,0,6.7|
2,1,3.7|
2,2,8.1|
];
constraint_x10_x6=[
0,0,1.8|
0,1,0.79|
0,2,7.5|
1,0,0.87|
1,1,1|
1,2,9|
2,0,6.4|
2,1,8|
2,2,0.02|
];
constraint_x10_x7=[
0,0,5.6|
0,1,3.3|
0,2,8.1|
1,0,2.6|
1,1,5.6|
1,2,2.7|
2,0,0.1|
2,1,5.6|
2,2,0.76|
];
constraint_x1_y1=[
0,0,1.3|
0,1,1.9|
0,2,8.1|
1,0,0.39|
1,1,6.8|
1,2,7.9|
2,0,0.12|
2,1,7.5|
2,2,2.5|
];
constraint_x2_y2=[
0,0,3.5|
0,1,5.9|
0,2,4.7|
1,0,7.9|
1,1,0.3|
1,2,1.6|
2,0,4.6|
2,1,8.1|
2,2,6.2|
];
constraint_x3_y3=[
0,0,2.5|
0,1,3.3|
0,2,5.9|
1,0,4.4|
1,1,1.9|
1,2,7.3|
2,0,6.7|
2,1,9.1|
2,2,1.7|
];
constraint_x4_y4=[
0,0,1.9|
0,1,8.7|
0,2,2.7|
1,0,7.3|
1,1,4.5|
1,2,4.4|
2,0,9.9|
2,1,2.1|
2,2,8.1|
];
initial_distribution_y1=[0.4,0.45,0.15];
initial_distribution_y2=[0.28,0.23,0.49];
initial_distribution_y3=[0.27,0.46,0.27];
initial_distribution_y4=[0.32,0.25,0.42];
transition_y1=[
0.16,0.44,0.4|
0.11,0.57,0.32|
0.49,0.19,0.31|
];
transition_y2=[
0.27,0.48,0.26|
0.094,0.85,0.059|
0.075,0.4,0.52|
];
transition_y3=[
0.36,0.35,0.29|
0.77,0.14,0.091|
0.44,0.25,0.31|
];
transition_y4=[
0.45,0.32,0.23|
0.55,0.2,0.25|
0.22,0.55,0.23|
];
